instances/knapsack/knapsack_general/knapsack_20_10_5.kp
42
20
2162

237 24.0 337 45.51
623 62.0 723 100.64
721 72.0 821 130.44
824 82.0 924 116.94
775 78.0 875 115.37
801 80.0 901 118.35
680 68.0 780 137.16
525 52.0 625 79.55
825 82.0 925 161.07
939 94.0 1039 160.72
407 41.0 507 86.79
370 37.0 470 66.06
458 46.0 558 108.71
739 74.0 839 89.16
929 93.0 1029 122.24
381 38.0 481 91.99
426 43.0 526 58.16
728 73.0 828 162.29
759 76.0 859 125.86
828 83.0 928 134.95

42
[950, 1592, 5757, 3188, 2723, 3132, 3403, 3272, 1645, 5395]

[[25, 40, 32, 15, 2, 18, 10, 44, 34, 2, 39, 28, 11, 14, 8, 16, 12, 0, 19, 19] [3, 76, 31, 42, 18, 24, 43, 56, 75, 47, 32, 28, 64, 23, 43, 76, 14, 57, 58, 3] [279, 106, 203, 78, 71, 87, 39, 280, 2, 257, 101, 266, 115, 134, 128, 261, 184, 69, 194, 123] [35, 24, 72, 131, 101, 158, 83, 39, 4, 110, 47, 122, 29, 73, 1, 24, 26, 37, 100, 26] [48, 109, 108, 20, 32, 63, 129, 71, 44, 13, 28, 2, 91, 31, 108, 45, 3, 131, 129, 119] [109, 27, 125, 60, 111, 45, 15, 104, 143, 17, 4, 141, 134, 118, 73, 20, 84, 28, 64, 102] [14, 99, 123, 8, 77, 19, 113, 27, 129, 129, 137, 2, 124, 148, 142, 148, 48, 45, 108, 41] [127, 11, 125, 71, 158, 126, 55, 14, 77, 153, 163, 151, 161, 22, 106, 48, 121, 81, 133, 148] [3, 46, 76, 9, 40, 59, 73, 0, 58, 22, 52, 54, 58, 33, 26, 51, 17, 42, 50, 18] [107, 200, 92, 54, 226, 12, 4, 15, 89, 55, 135, 151, 10, 18, 11, 201, 158, 10, 242, 136]]

[[931, 853, 831, 950, 541, 863, 334, 859, 799, 745, 501, 80, 784, 433, 255, 595, 128, 694, 181, 410] [996, 346, 536, 763, 174, 484, 287, 248, 408, 670, 358, 461, 361, 278, 560, 504, 553, 91, 758, 719] [956, 162, 144, 931, 406, 188, 783, 864, 424, 862, 150, 997, 289, 174, 816, 872, 713, 835, 230, 719] [115, 980, 500, 304, 558, 382, 155, 150, 680, 687, 793, 299, 953, 439, 155, 861, 297, 68, 714, 476] [906, 16, 206, 537, 292, 194, 845, 206, 654, 60, 252, 83, 423, 748, 846, 374, 207, 385, 788, 149] [931, 788, 684, 224, 534, 534, 27, 190, 560, 791, 753, 307, 625, 823, 211, 261, 305, 340, 338, 172] [914, 704, 254, 681, 260, 818, 325, 542, 974, 644, 4, 627, 567, 500, 638, 534, 415, 305, 292, 213] [366, 571, 439, 231, 833, 469, 902, 149, 395, 606, 276, 338, 300, 486, 870, 532, 148, 907, 629, 371] [714, 911, 795, 91, 157, 129, 10, 601, 271, 778, 544, 94, 720, 506, 946, 352, 680, 759, 65, 751] [487, 857, 339, 130, 593, 571, 370, 495, 971, 949, 545, 948, 364, 781, 707, 455, 452, 10, 105, 662]]
