instances/knapsack/knapsack_general/knapsack_20_10_5.lp
\ Model knapsack_20_10_5
\ LP format - for model browsing. Use MPS format to capture full model detail.
\ Signature: 0xaaa9fb3fb8ceec15
Minimize
  - 337 y[0] - 723 y[1] - 821 y[2] - 924 y[3] - 875 y[4] - 901 y[5]
   - 780 y[6] - 625 y[7] - 925 y[8] - 1039 y[9] - 507 y[10] - 470 y[11]
   - 558 y[12] - 839 y[13] - 1029 y[14] - 481 y[15] - 526 y[16] - 828 y[17]
   - 859 y[18] - 928 y[19]
Subject To
 primal_upper: 237 y[0] + 623 y[1] + 721 y[2] + 824 y[3] + 775 y[4]
   + 801 y[5] + 680 y[6] + 525 y[7] + 825 y[8] + 939 y[9] + 407 y[10]
   + 370 y[11] + 458 y[12] + 739 y[13] + 929 y[14] + 381 y[15] + 426 y[16]
   + 728 y[17] + 759 y[18] + 828 y[19] + 24 z[0] + 62 z[1] + 72 z[2]
   + 82 z[3] + 78 z[4] + 80 z[5] + 68 z[6] + 52 z[7] + 82 z[8] + 94 z[9]
   + 41 z[10] + 37 z[11] + 46 z[12] + 74 z[13] + 93 z[14] + 38 z[15]
   + 43 z[16] + 73 z[17] + 76 z[18] + 83 z[19] <= 2162
 primal_lower0: - 25 y[0] - 40 y[1] - 32 y[2] - 15 y[3] - 2 y[4] - 18 y[5]
   - 10 y[6] - 44 y[7] - 34 y[8] - 2 y[9] - 39 y[10] - 28 y[11] - 11 y[12]
   - 14 y[13] - 8 y[14] - 16 y[15] - 12 y[16] - 19 y[18] - 19 y[19]
   + 931 u[0] + 853 u[1] + 831 u[2] + 950 u[3] + 541 u[4] + 863 u[5]
   + 334 u[6] + 859 u[7] + 799 u[8] + 745 u[9] + 501 u[10] + 80 u[11]
   + 784 u[12] + 433 u[13] + 255 u[14] + 595 u[15] + 128 u[16] + 694 u[17]
   + 181 u[18] + 410 u[19] <= 950
 primal_lower1: - 3 y[0] - 76 y[1] - 31 y[2] - 42 y[3] - 18 y[4] - 24 y[5]
   - 43 y[6] - 56 y[7] - 75 y[8] - 47 y[9] - 32 y[10] - 28 y[11] - 64 y[12]
   - 23 y[13] - 43 y[14] - 76 y[15] - 14 y[16] - 57 y[17] - 58 y[18]
   - 3 y[19] + 996 u[0] + 346 u[1] + 536 u[2] + 763 u[3] + 174 u[4]
   + 484 u[5] + 287 u[6] + 248 u[7] + 408 u[8] + 670 u[9] + 358 u[10]
   + 461 u[11] + 361 u[12] + 278 u[13] + 560 u[14] + 504 u[15] + 553 u[16]
   + 91 u[17] + 758 u[18] + 719 u[19] <= 1592
 primal_lower2: - 279 y[0] - 106 y[1] - 203 y[2] - 78 y[3] - 71 y[4]
   - 87 y[5] - 39 y[6] - 280 y[7] - 2 y[8] - 257 y[9] - 101 y[10]
   - 266 y[11] - 115 y[12] - 134 y[13] - 128 y[14] - 261 y[15] - 184 y[16]
   - 69 y[17] - 194 y[18] - 123 y[19] + 956 u[0] + 162 u[1] + 144 u[2]
   + 931 u[3] + 406 u[4] + 188 u[5] + 783 u[6] + 864 u[7] + 424 u[8]
   + 862 u[9] + 150 u[10] + 997 u[11] + 289 u[12] + 174 u[13] + 816 u[14]
   + 872 u[15] + 713 u[16] + 835 u[17] + 230 u[18] + 719 u[19] <= 5757
 primal_lower3: - 35 y[0] - 24 y[1] - 72 y[2] - 131 y[3] - 101 y[4]
   - 158 y[5] - 83 y[6] - 39 y[7] - 4 y[8] - 110 y[9] - 47 y[10]
   - 122 y[11] - 29 y[12] - 73 y[13] - y[14] - 24 y[15] - 26 y[16]
   - 37 y[17] - 100 y[18] - 26 y[19] + 115 u[0] + 980 u[1] + 500 u[2]
   + 304 u[3] + 558 u[4] + 382 u[5] + 155 u[6] + 150 u[7] + 680 u[8]
   + 687 u[9] + 793 u[10] + 299 u[11] + 953 u[12] + 439 u[13] + 155 u[14]
   + 861 u[15] + 297 u[16] + 68 u[17] + 714 u[18] + 476 u[19] <= 3188
 primal_lower4: - 48 y[0] - 109 y[1] - 108 y[2] - 20 y[3] - 32 y[4]
   - 63 y[5] - 129 y[6] - 71 y[7] - 44 y[8] - 13 y[9] - 28 y[10] - 2 y[11]
   - 91 y[12] - 31 y[13] - 108 y[14] - 45 y[15] - 3 y[16] - 131 y[17]
   - 129 y[18] - 119 y[19] + 906 u[0] + 16 u[1] + 206 u[2] + 537 u[3]
   + 292 u[4] + 194 u[5] + 845 u[6] + 206 u[7] + 654 u[8] + 60 u[9]
   + 252 u[10] + 83 u[11] + 423 u[12] + 748 u[13] + 846 u[14] + 374 u[15]
   + 207 u[16] + 385 u[17] + 788 u[18] + 149 u[19] <= 2723
 primal_lower5: - 109 y[0] - 27 y[1] - 125 y[2] - 60 y[3] - 111 y[4]
   - 45 y[5] - 15 y[6] - 104 y[7] - 143 y[8] - 17 y[9] - 4 y[10]
   - 141 y[11] - 134 y[12] - 118 y[13] - 73 y[14] - 20 y[15] - 84 y[16]
   - 28 y[17] - 64 y[18] - 102 y[19] + 931 u[0] + 788 u[1] + 684 u[2]
   + 224 u[3] + 534 u[4] + 534 u[5] + 27 u[6] + 190 u[7] + 560 u[8]
   + 791 u[9] + 753 u[10] + 307 u[11] + 625 u[12] + 823 u[13] + 211 u[14]
   + 261 u[15] + 305 u[16] + 340 u[17] + 338 u[18] + 172 u[19] <= 3132
 primal_lower6: - 14 y[0] - 99 y[1] - 123 y[2] - 8 y[3] - 77 y[4] - 19 y[5]
   - 113 y[6] - 27 y[7] - 129 y[8] - 129 y[9] - 137 y[10] - 2 y[11]
   - 124 y[12] - 148 y[13] - 142 y[14] - 148 y[15] - 48 y[16] - 45 y[17]
   - 108 y[18] - 41 y[19] + 914 u[0] + 704 u[1] + 254 u[2] + 681 u[3]
   + 260 u[4] + 818 u[5] + 325 u[6] + 542 u[7] + 974 u[8] + 644 u[9]
   + 4 u[10] + 627 u[11] + 567 u[12] + 500 u[13] + 638 u[14] + 534 u[15]
   + 415 u[16] + 305 u[17] + 292 u[18] + 213 u[19] <= 3403
 primal_lower7: - 127 y[0] - 11 y[1] - 125 y[2] - 71 y[3] - 158 y[4]
   - 126 y[5] - 55 y[6] - 14 y[7] - 77 y[8] - 153 y[9] - 163 y[10]
   - 151 y[11] - 161 y[12] - 22 y[13] - 106 y[14] - 48 y[15] - 121 y[16]
   - 81 y[17] - 133 y[18] - 148 y[19] + 366 u[0] + 571 u[1] + 439 u[2]
   + 231 u[3] + 833 u[4] + 469 u[5] + 902 u[6] + 149 u[7] + 395 u[8]
   + 606 u[9] + 276 u[10] + 338 u[11] + 300 u[12] + 486 u[13] + 870 u[14]
   + 532 u[15] + 148 u[16] + 907 u[17] + 629 u[18] + 371 u[19] <= 3272
 primal_lower8: - 3 y[0] - 46 y[1] - 76 y[2] - 9 y[3] - 40 y[4] - 59 y[5]
   - 73 y[6] - 58 y[8] - 22 y[9] - 52 y[10] - 54 y[11] - 58 y[12]
   - 33 y[13] - 26 y[14] - 51 y[15] - 17 y[16] - 42 y[17] - 50 y[18]
   - 18 y[19] + 714 u[0] + 911 u[1] + 795 u[2] + 91 u[3] + 157 u[4]
   + 129 u[5] + 10 u[6] + 601 u[7] + 271 u[8] + 778 u[9] + 544 u[10]
   + 94 u[11] + 720 u[12] + 506 u[13] + 946 u[14] + 352 u[15] + 680 u[16]
   + 759 u[17] + 65 u[18] + 751 u[19] <= 1645
 primal_lower9: - 107 y[0] - 200 y[1] - 92 y[2] - 54 y[3] - 226 y[4]
   - 12 y[5] - 4 y[6] - 15 y[7] - 89 y[8] - 55 y[9] - 135 y[10] - 151 y[11]
   - 10 y[12] - 18 y[13] - 11 y[14] - 201 y[15] - 158 y[16] - 10 y[17]
   - 242 y[18] - 136 y[19] + 487 u[0] + 857 u[1] + 339 u[2] + 130 u[3]
   + 593 u[4] + 571 u[5] + 370 u[6] + 495 u[7] + 971 u[8] + 949 u[9]
   + 545 u[10] + 948 u[11] + 364 u[12] + 781 u[13] + 707 u[14] + 455 u[15]
   + 452 u[16] + 10 u[17] + 105 u[18] + 662 u[19] <= 5395
 mccormick1[0]: - u[0] + z[0] <= 0
 mccormick1[1]: - u[1] + z[1] <= 0
 mccormick1[2]: - u[2] + z[2] <= 0
 mccormick1[3]: - u[3] + z[3] <= 0
 mccormick1[4]: - u[4] + z[4] <= 0
 mccormick1[5]: - u[5] + z[5] <= 0
 mccormick1[6]: - u[6] + z[6] <= 0
 mccormick1[7]: - u[7] + z[7] <= 0
 mccormick1[8]: - u[8] + z[8] <= 0
 mccormick1[9]: - u[9] + z[9] <= 0
 mccormick1[10]: - u[10] + z[10] <= 0
 mccormick1[11]: - u[11] + z[11] <= 0
 mccormick1[12]: - u[12] + z[12] <= 0
 mccormick1[13]: - u[13] + z[13] <= 0
 mccormick1[14]: - u[14] + z[14] <= 0
 mccormick1[15]: - u[15] + z[15] <= 0
 mccormick1[16]: - u[16] + z[16] <= 0
 mccormick1[17]: - u[17] + z[17] <= 0
 mccormick1[18]: - u[18] + z[18] <= 0
 mccormick1[19]: - u[19] + z[19] <= 0
 mccormick2[0]: - y[0] + z[0] <= 0
 mccormick2[1]: - y[1] + z[1] <= 0
 mccormick2[2]: - y[2] + z[2] <= 0
 mccormick2[3]: - y[3] + z[3] <= 0
 mccormick2[4]: - y[4] + z[4] <= 0
 mccormick2[5]: - y[5] + z[5] <= 0
 mccormick2[6]: - y[6] + z[6] <= 0
 mccormick2[7]: - y[7] + z[7] <= 0
 mccormick2[8]: - y[8] + z[8] <= 0
 mccormick2[9]: - y[9] + z[9] <= 0
 mccormick2[10]: - y[10] + z[10] <= 0
 mccormick2[11]: - y[11] + z[11] <= 0
 mccormick2[12]: - y[12] + z[12] <= 0
 mccormick2[13]: - y[13] + z[13] <= 0
 mccormick2[14]: - y[14] + z[14] <= 0
 mccormick2[15]: - y[15] + z[15] <= 0
 mccormick2[16]: - y[16] + z[16] <= 0
 mccormick2[17]: - y[17] + z[17] <= 0
 mccormick2[18]: - y[18] + z[18] <= 0
 mccormick2[19]: - y[19] + z[19] <= 0
 mccormick3[0]: y[0] + u[0] - z[0] <= 1
 mccormick3[1]: y[1] + u[1] - z[1] <= 1
 mccormick3[2]: y[2] + u[2] - z[2] <= 1
 mccormick3[3]: y[3] + u[3] - z[3] <= 1
 mccormick3[4]: y[4] + u[4] - z[4] <= 1
 mccormick3[5]: y[5] + u[5] - z[5] <= 1
 mccormick3[6]: y[6] + u[6] - z[6] <= 1
 mccormick3[7]: y[7] + u[7] - z[7] <= 1
 mccormick3[8]: y[8] + u[8] - z[8] <= 1
 mccormick3[9]: y[9] + u[9] - z[9] <= 1
 mccormick3[10]: y[10] + u[10] - z[10] <= 1
 mccormick3[11]: y[11] + u[11] - z[11] <= 1
 mccormick3[12]: y[12] + u[12] - z[12] <= 1
 mccormick3[13]: y[13] + u[13] - z[13] <= 1
 mccormick3[14]: y[14] + u[14] - z[14] <= 1
 mccormick3[15]: y[15] + u[15] - z[15] <= 1
 mccormick3[16]: y[16] + u[16] - z[16] <= 1
 mccormick3[17]: y[17] + u[17] - z[17] <= 1
 mccormick3[18]: y[18] + u[18] - z[18] <= 1
 mccormick3[19]: y[19] + u[19] - z[19] <= 1
Bounds
Binaries
 y[0] y[1] y[2] y[3] y[4] y[5] y[6] y[7] y[8] y[9] y[10] y[11] y[12] y[13]
 y[14] y[15] y[16] y[17] y[18] y[19] u[0] u[1] u[2] u[3] u[4] u[5] u[6]
 u[7] u[8] u[9] u[10] u[11] u[12] u[13] u[14] u[15] u[16] u[17] u[18] u[19]
 z[0] z[1] z[2] z[3] z[4] z[5] z[6] z[7] z[8] z[9] z[10] z[11] z[12] z[13]
 z[14] z[15] z[16] z[17] z[18] z[19]
End
