instances/knapsack/knapsack_general/knapsack_20_10_5.mps
* Signature: 0xaaa9fb3fb8ceec15
NAME knapsack_20_10_5
ROWS
 N  OBJ
 L  primal_upper
 L  primal_lower0
 L  primal_lower1
 L  primal_lower2
 L  primal_lower3
 L  primal_lower4
 L  primal_lower5
 L  primal_lower6
 L  primal_lower7
 L  primal_lower8
 L  primal_lower9
 L  mccormick1[0]
 L  mccormick1[1]
 L  mccormick1[2]
 L  mccormick1[3]
 L  mccormick1[4]
 L  mccormick1[5]
 L  mccormick1[6]
 L  mccormick1[7]
 L  mccormick1[8]
 L  mccormick1[9]
 L  mccormick1[10]
 L  mccormick1[11]
 L  mccormick1[12]
 L  mccormick1[13]
 L  mccormick1[14]
 L  mccormick1[15]
 L  mccormick1[16]
 L  mccormick1[17]
 L  mccormick1[18]
 L  mccormick1[19]
 L  mccormick2[0]
 L  mccormick2[1]
 L  mccormick2[2]
 L  mccormick2[3]
 L  mccormick2[4]
 L  mccormick2[5]
 L  mccormick2[6]
 L  mccormick2[7]
 L  mccormick2[8]
 L  mccormick2[9]
 L  mccormick2[10]
 L  mccormick2[11]
 L  mccormick2[12]
 L  mccormick2[13]
 L  mccormick2[14]
 L  mccormick2[15]
 L  mccormick2[16]
 L  mccormick2[17]
 L  mccormick2[18]
 L  mccormick2[19]
 L  mccormick3[0]
 L  mccormick3[1]
 L  mccormick3[2]
 L  mccormick3[3]
 L  mccormick3[4]
 L  mccormick3[5]
 L  mccormick3[6]
 L  mccormick3[7]
 L  mccormick3[8]
 L  mccormick3[9]
 L  mccormick3[10]
 L  mccormick3[11]
 L  mccormick3[12]
 L  mccormick3[13]
 L  mccormick3[14]
 L  mccormick3[15]
 L  mccormick3[16]
 L  mccormick3[17]
 L  mccormick3[18]
 L  mccormick3[19]
COLUMNS
    MARKER    'MARKER'                 'INTORG'
    y[0]      OBJ       -337
    y[0]      primal_upper  237
    y[0]      primal_lower0  -25
    y[0]      primal_lower1  -3
    y[0]      primal_lower2  -279
    y[0]      primal_lower3  -35
    y[0]      primal_lower4  -48
    y[0]      primal_lower5  -109
    y[0]      primal_lower6  -14
    y[0]      primal_lower7  -127
    y[0]      primal_lower8  -3
    y[0]      primal_lower9  -107
    y[0]      mccormick2[0]  -1
    y[0]      mccormick3[0]  1
    y[1]      OBJ       -723
    y[1]      primal_upper  623
    y[1]      primal_lower0  -40
    y[1]      primal_lower1  -76
    y[1]      primal_lower2  -106
    y[1]      primal_lower3  -24
    y[1]      primal_lower4  -109
    y[1]      primal_lower5  -27
    y[1]      primal_lower6  -99
    y[1]      primal_lower7  -11
    y[1]      primal_lower8  -46
    y[1]      primal_lower9  -200
    y[1]      mccormick2[1]  -1
    y[1]      mccormick3[1]  1
    y[2]      OBJ       -821
    y[2]      primal_upper  721
    y[2]      primal_lower0  -32
    y[2]      primal_lower1  -31
    y[2]      primal_lower2  -203
    y[2]      primal_lower3  -72
    y[2]      primal_lower4  -108
    y[2]      primal_lower5  -125
    y[2]      primal_lower6  -123
    y[2]      primal_lower7  -125
    y[2]      primal_lower8  -76
    y[2]      primal_lower9  -92
    y[2]      mccormick2[2]  -1
    y[2]      mccormick3[2]  1
    y[3]      OBJ       -924
    y[3]      primal_upper  824
    y[3]      primal_lower0  -15
    y[3]      primal_lower1  -42
    y[3]      primal_lower2  -78
    y[3]      primal_lower3  -131
    y[3]      primal_lower4  -20
    y[3]      primal_lower5  -60
    y[3]      primal_lower6  -8
    y[3]      primal_lower7  -71
    y[3]      primal_lower8  -9
    y[3]      primal_lower9  -54
    y[3]      mccormick2[3]  -1
    y[3]      mccormick3[3]  1
    y[4]      OBJ       -875
    y[4]      primal_upper  775
    y[4]      primal_lower0  -2
    y[4]      primal_lower1  -18
    y[4]      primal_lower2  -71
    y[4]      primal_lower3  -101
    y[4]      primal_lower4  -32
    y[4]      primal_lower5  -111
    y[4]      primal_lower6  -77
    y[4]      primal_lower7  -158
    y[4]      primal_lower8  -40
    y[4]      primal_lower9  -226
    y[4]      mccormick2[4]  -1
    y[4]      mccormick3[4]  1
    y[5]      OBJ       -901
    y[5]      primal_upper  801
    y[5]      primal_lower0  -18
    y[5]      primal_lower1  -24
    y[5]      primal_lower2  -87
    y[5]      primal_lower3  -158
    y[5]      primal_lower4  -63
    y[5]      primal_lower5  -45
    y[5]      primal_lower6  -19
    y[5]      primal_lower7  -126
    y[5]      primal_lower8  -59
    y[5]      primal_lower9  -12
    y[5]      mccormick2[5]  -1
    y[5]      mccormick3[5]  1
    y[6]      OBJ       -780
    y[6]      primal_upper  680
    y[6]      primal_lower0  -10
    y[6]      primal_lower1  -43
    y[6]      primal_lower2  -39
    y[6]      primal_lower3  -83
    y[6]      primal_lower4  -129
    y[6]      primal_lower5  -15
    y[6]      primal_lower6  -113
    y[6]      primal_lower7  -55
    y[6]      primal_lower8  -73
    y[6]      primal_lower9  -4
    y[6]      mccormick2[6]  -1
    y[6]      mccormick3[6]  1
    y[7]      OBJ       -625
    y[7]      primal_upper  525
    y[7]      primal_lower0  -44
    y[7]      primal_lower1  -56
    y[7]      primal_lower2  -280
    y[7]      primal_lower3  -39
    y[7]      primal_lower4  -71
    y[7]      primal_lower5  -104
    y[7]      primal_lower6  -27
    y[7]      primal_lower7  -14
    y[7]      primal_lower9  -15
    y[7]      mccormick2[7]  -1
    y[7]      mccormick3[7]  1
    y[8]      OBJ       -925
    y[8]      primal_upper  825
    y[8]      primal_lower0  -34
    y[8]      primal_lower1  -75
    y[8]      primal_lower2  -2
    y[8]      primal_lower3  -4
    y[8]      primal_lower4  -44
    y[8]      primal_lower5  -143
    y[8]      primal_lower6  -129
    y[8]      primal_lower7  -77
    y[8]      primal_lower8  -58
    y[8]      primal_lower9  -89
    y[8]      mccormick2[8]  -1
    y[8]      mccormick3[8]  1
    y[9]      OBJ       -1039
    y[9]      primal_upper  939
    y[9]      primal_lower0  -2
    y[9]      primal_lower1  -47
    y[9]      primal_lower2  -257
    y[9]      primal_lower3  -110
    y[9]      primal_lower4  -13
    y[9]      primal_lower5  -17
    y[9]      primal_lower6  -129
    y[9]      primal_lower7  -153
    y[9]      primal_lower8  -22
    y[9]      primal_lower9  -55
    y[9]      mccormick2[9]  -1
    y[9]      mccormick3[9]  1
    y[10]     OBJ       -507
    y[10]     primal_upper  407
    y[10]     primal_lower0  -39
    y[10]     primal_lower1  -32
    y[10]     primal_lower2  -101
    y[10]     primal_lower3  -47
    y[10]     primal_lower4  -28
    y[10]     primal_lower5  -4
    y[10]     primal_lower6  -137
    y[10]     primal_lower7  -163
    y[10]     primal_lower8  -52
    y[10]     primal_lower9  -135
    y[10]     mccormick2[10]  -1
    y[10]     mccormick3[10]  1
    y[11]     OBJ       -470
    y[11]     primal_upper  370
    y[11]     primal_lower0  -28
    y[11]     primal_lower1  -28
    y[11]     primal_lower2  -266
    y[11]     primal_lower3  -122
    y[11]     primal_lower4  -2
    y[11]     primal_lower5  -141
    y[11]     primal_lower6  -2
    y[11]     primal_lower7  -151
    y[11]     primal_lower8  -54
    y[11]     primal_lower9  -151
    y[11]     mccormick2[11]  -1
    y[11]     mccormick3[11]  1
    y[12]     OBJ       -558
    y[12]     primal_upper  458
    y[12]     primal_lower0  -11
    y[12]     primal_lower1  -64
    y[12]     primal_lower2  -115
    y[12]     primal_lower3  -29
    y[12]     primal_lower4  -91
    y[12]     primal_lower5  -134
    y[12]     primal_lower6  -124
    y[12]     primal_lower7  -161
    y[12]     primal_lower8  -58
    y[12]     primal_lower9  -10
    y[12]     mccormick2[12]  -1
    y[12]     mccormick3[12]  1
    y[13]     OBJ       -839
    y[13]     primal_upper  739
    y[13]     primal_lower0  -14
    y[13]     primal_lower1  -23
    y[13]     primal_lower2  -134
    y[13]     primal_lower3  -73
    y[13]     primal_lower4  -31
    y[13]     primal_lower5  -118
    y[13]     primal_lower6  -148
    y[13]     primal_lower7  -22
    y[13]     primal_lower8  -33
    y[13]     primal_lower9  -18
    y[13]     mccormick2[13]  -1
    y[13]     mccormick3[13]  1
    y[14]     OBJ       -1029
    y[14]     primal_upper  929
    y[14]     primal_lower0  -8
    y[14]     primal_lower1  -43
    y[14]     primal_lower2  -128
    y[14]     primal_lower3  -1
    y[14]     primal_lower4  -108
    y[14]     primal_lower5  -73
    y[14]     primal_lower6  -142
    y[14]     primal_lower7  -106
    y[14]     primal_lower8  -26
    y[14]     primal_lower9  -11
    y[14]     mccormick2[14]  -1
    y[14]     mccormick3[14]  1
    y[15]     OBJ       -481
    y[15]     primal_upper  381
    y[15]     primal_lower0  -16
    y[15]     primal_lower1  -76
    y[15]     primal_lower2  -261
    y[15]     primal_lower3  -24
    y[15]     primal_lower4  -45
    y[15]     primal_lower5  -20
    y[15]     primal_lower6  -148
    y[15]     primal_lower7  -48
    y[15]     primal_lower8  -51
    y[15]     primal_lower9  -201
    y[15]     mccormick2[15]  -1
    y[15]     mccormick3[15]  1
    y[16]     OBJ       -526
    y[16]     primal_upper  426
    y[16]     primal_lower0  -12
    y[16]     primal_lower1  -14
    y[16]     primal_lower2  -184
    y[16]     primal_lower3  -26
    y[16]     primal_lower4  -3
    y[16]     primal_lower5  -84
    y[16]     primal_lower6  -48
    y[16]     primal_lower7  -121
    y[16]     primal_lower8  -17
    y[16]     primal_lower9  -158
    y[16]     mccormick2[16]  -1
    y[16]     mccormick3[16]  1
    y[17]     OBJ       -828
    y[17]     primal_upper  728
    y[17]     primal_lower1  -57
    y[17]     primal_lower2  -69
    y[17]     primal_lower3  -37
    y[17]     primal_lower4  -131
    y[17]     primal_lower5  -28
    y[17]     primal_lower6  -45
    y[17]     primal_lower7  -81
    y[17]     primal_lower8  -42
    y[17]     primal_lower9  -10
    y[17]     mccormick2[17]  -1
    y[17]     mccormick3[17]  1
    y[18]     OBJ       -859
    y[18]     primal_upper  759
    y[18]     primal_lower0  -19
    y[18]     primal_lower1  -58
    y[18]     primal_lower2  -194
    y[18]     primal_lower3  -100
    y[18]     primal_lower4  -129
    y[18]     primal_lower5  -64
    y[18]     primal_lower6  -108
    y[18]     primal_lower7  -133
    y[18]     primal_lower8  -50
    y[18]     primal_lower9  -242
    y[18]     mccormick2[18]  -1
    y[18]     mccormick3[18]  1
    y[19]     OBJ       -928
    y[19]     primal_upper  828
    y[19]     primal_lower0  -19
    y[19]     primal_lower1  -3
    y[19]     primal_lower2  -123
    y[19]     primal_lower3  -26
    y[19]     primal_lower4  -119
    y[19]     primal_lower5  -102
    y[19]     primal_lower6  -41
    y[19]     primal_lower7  -148
    y[19]     primal_lower8  -18
    y[19]     primal_lower9  -136
    y[19]     mccormick2[19]  -1
    y[19]     mccormick3[19]  1
    u[0]      primal_lower0  931
    u[0]      primal_lower1  996
    u[0]      primal_lower2  956
    u[0]      primal_lower3  115
    u[0]      primal_lower4  906
    u[0]      primal_lower5  931
    u[0]      primal_lower6  914
    u[0]      primal_lower7  366
    u[0]      primal_lower8  714
    u[0]      primal_lower9  487
    u[0]      mccormick1[0]  -1
    u[0]      mccormick3[0]  1
    u[1]      primal_lower0  853
    u[1]      primal_lower1  346
    u[1]      primal_lower2  162
    u[1]      primal_lower3  980
    u[1]      primal_lower4  16
    u[1]      primal_lower5  788
    u[1]      primal_lower6  704
    u[1]      primal_lower7  571
    u[1]      primal_lower8  911
    u[1]      primal_lower9  857
    u[1]      mccormick1[1]  -1
    u[1]      mccormick3[1]  1
    u[2]      primal_lower0  831
    u[2]      primal_lower1  536
    u[2]      primal_lower2  144
    u[2]      primal_lower3  500
    u[2]      primal_lower4  206
    u[2]      primal_lower5  684
    u[2]      primal_lower6  254
    u[2]      primal_lower7  439
    u[2]      primal_lower8  795
    u[2]      primal_lower9  339
    u[2]      mccormick1[2]  -1
    u[2]      mccormick3[2]  1
    u[3]      primal_lower0  950
    u[3]      primal_lower1  763
    u[3]      primal_lower2  931
    u[3]      primal_lower3  304
    u[3]      primal_lower4  537
    u[3]      primal_lower5  224
    u[3]      primal_lower6  681
    u[3]      primal_lower7  231
    u[3]      primal_lower8  91
    u[3]      primal_lower9  130
    u[3]      mccormick1[3]  -1
    u[3]      mccormick3[3]  1
    u[4]      primal_lower0  541
    u[4]      primal_lower1  174
    u[4]      primal_lower2  406
    u[4]      primal_lower3  558
    u[4]      primal_lower4  292
    u[4]      primal_lower5  534
    u[4]      primal_lower6  260
    u[4]      primal_lower7  833
    u[4]      primal_lower8  157
    u[4]      primal_lower9  593
    u[4]      mccormick1[4]  -1
    u[4]      mccormick3[4]  1
    u[5]      primal_lower0  863
    u[5]      primal_lower1  484
    u[5]      primal_lower2  188
    u[5]      primal_lower3  382
    u[5]      primal_lower4  194
    u[5]      primal_lower5  534
    u[5]      primal_lower6  818
    u[5]      primal_lower7  469
    u[5]      primal_lower8  129
    u[5]      primal_lower9  571
    u[5]      mccormick1[5]  -1
    u[5]      mccormick3[5]  1
    u[6]      primal_lower0  334
    u[6]      primal_lower1  287
    u[6]      primal_lower2  783
    u[6]      primal_lower3  155
    u[6]      primal_lower4  845
    u[6]      primal_lower5  27
    u[6]      primal_lower6  325
    u[6]      primal_lower7  902
    u[6]      primal_lower8  10
    u[6]      primal_lower9  370
    u[6]      mccormick1[6]  -1
    u[6]      mccormick3[6]  1
    u[7]      primal_lower0  859
    u[7]      primal_lower1  248
    u[7]      primal_lower2  864
    u[7]      primal_lower3  150
    u[7]      primal_lower4  206
    u[7]      primal_lower5  190
    u[7]      primal_lower6  542
    u[7]      primal_lower7  149
    u[7]      primal_lower8  601
    u[7]      primal_lower9  495
    u[7]      mccormick1[7]  -1
    u[7]      mccormick3[7]  1
    u[8]      primal_lower0  799
    u[8]      primal_lower1  408
    u[8]      primal_lower2  424
    u[8]      primal_lower3  680
    u[8]      primal_lower4  654
    u[8]      primal_lower5  560
    u[8]      primal_lower6  974
    u[8]      primal_lower7  395
    u[8]      primal_lower8  271
    u[8]      primal_lower9  971
    u[8]      mccormick1[8]  -1
    u[8]      mccormick3[8]  1
    u[9]      primal_lower0  745
    u[9]      primal_lower1  670
    u[9]      primal_lower2  862
    u[9]      primal_lower3  687
    u[9]      primal_lower4  60
    u[9]      primal_lower5  791
    u[9]      primal_lower6  644
    u[9]      primal_lower7  606
    u[9]      primal_lower8  778
    u[9]      primal_lower9  949
    u[9]      mccormick1[9]  -1
    u[9]      mccormick3[9]  1
    u[10]     primal_lower0  501
    u[10]     primal_lower1  358
    u[10]     primal_lower2  150
    u[10]     primal_lower3  793
    u[10]     primal_lower4  252
    u[10]     primal_lower5  753
    u[10]     primal_lower6  4
    u[10]     primal_lower7  276
    u[10]     primal_lower8  544
    u[10]     primal_lower9  545
    u[10]     mccormick1[10]  -1
    u[10]     mccormick3[10]  1
    u[11]     primal_lower0  80
    u[11]     primal_lower1  461
    u[11]     primal_lower2  997
    u[11]     primal_lower3  299
    u[11]     primal_lower4  83
    u[11]     primal_lower5  307
    u[11]     primal_lower6  627
    u[11]     primal_lower7  338
    u[11]     primal_lower8  94
    u[11]     primal_lower9  948
    u[11]     mccormick1[11]  -1
    u[11]     mccormick3[11]  1
    u[12]     primal_lower0  784
    u[12]     primal_lower1  361
    u[12]     primal_lower2  289
    u[12]     primal_lower3  953
    u[12]     primal_lower4  423
    u[12]     primal_lower5  625
    u[12]     primal_lower6  567
    u[12]     primal_lower7  300
    u[12]     primal_lower8  720
    u[12]     primal_lower9  364
    u[12]     mccormick1[12]  -1
    u[12]     mccormick3[12]  1
    u[13]     primal_lower0  433
    u[13]     primal_lower1  278
    u[13]     primal_lower2  174
    u[13]     primal_lower3  439
    u[13]     primal_lower4  748
    u[13]     primal_lower5  823
    u[13]     primal_lower6  500
    u[13]     primal_lower7  486
    u[13]     primal_lower8  506
    u[13]     primal_lower9  781
    u[13]     mccormick1[13]  -1
    u[13]     mccormick3[13]  1
    u[14]     primal_lower0  255
    u[14]     primal_lower1  560
    u[14]     primal_lower2  816
    u[14]     primal_lower3  155
    u[14]     primal_lower4  846
    u[14]     primal_lower5  211
    u[14]     primal_lower6  638
    u[14]     primal_lower7  870
    u[14]     primal_lower8  946
    u[14]     primal_lower9  707
    u[14]     mccormick1[14]  -1
    u[14]     mccormick3[14]  1
    u[15]     primal_lower0  595
    u[15]     primal_lower1  504
    u[15]     primal_lower2  872
    u[15]     primal_lower3  861
    u[15]     primal_lower4  374
    u[15]     primal_lower5  261
    u[15]     primal_lower6  534
    u[15]     primal_lower7  532
    u[15]     primal_lower8  352
    u[15]     primal_lower9  455
    u[15]     mccormick1[15]  -1
    u[15]     mccormick3[15]  1
    u[16]     primal_lower0  128
    u[16]     primal_lower1  553
    u[16]     primal_lower2  713
    u[16]     primal_lower3  297
    u[16]     primal_lower4  207
    u[16]     primal_lower5  305
    u[16]     primal_lower6  415
    u[16]     primal_lower7  148
    u[16]     primal_lower8  680
    u[16]     primal_lower9  452
    u[16]     mccormick1[16]  -1
    u[16]     mccormick3[16]  1
    u[17]     primal_lower0  694
    u[17]     primal_lower1  91
    u[17]     primal_lower2  835
    u[17]     primal_lower3  68
    u[17]     primal_lower4  385
    u[17]     primal_lower5  340
    u[17]     primal_lower6  305
    u[17]     primal_lower7  907
    u[17]     primal_lower8  759
    u[17]     primal_lower9  10
    u[17]     mccormick1[17]  -1
    u[17]     mccormick3[17]  1
    u[18]     primal_lower0  181
    u[18]     primal_lower1  758
    u[18]     primal_lower2  230
    u[18]     primal_lower3  714
    u[18]     primal_lower4  788
    u[18]     primal_lower5  338
    u[18]     primal_lower6  292
    u[18]     primal_lower7  629
    u[18]     primal_lower8  65
    u[18]     primal_lower9  105
    u[18]     mccormick1[18]  -1
    u[18]     mccormick3[18]  1
    u[19]     primal_lower0  410
    u[19]     primal_lower1  719
    u[19]     primal_lower2  719
    u[19]     primal_lower3  476
    u[19]     primal_lower4  149
    u[19]     primal_lower5  172
    u[19]     primal_lower6  213
    u[19]     primal_lower7  371
    u[19]     primal_lower8  751
    u[19]     primal_lower9  662
    u[19]     mccormick1[19]  -1
    u[19]     mccormick3[19]  1
    z[0]      primal_upper  24
    z[0]      mccormick1[0]  1
    z[0]      mccormick2[0]  1
    z[0]      mccormick3[0]  -1
    z[1]      primal_upper  62
    z[1]      mccormick1[1]  1
    z[1]      mccormick2[1]  1
    z[1]      mccormick3[1]  -1
    z[2]      primal_upper  72
    z[2]      mccormick1[2]  1
    z[2]      mccormick2[2]  1
    z[2]      mccormick3[2]  -1
    z[3]      primal_upper  82
    z[3]      mccormick1[3]  1
    z[3]      mccormick2[3]  1
    z[3]      mccormick3[3]  -1
    z[4]      primal_upper  78
    z[4]      mccormick1[4]  1
    z[4]      mccormick2[4]  1
    z[4]      mccormick3[4]  -1
    z[5]      primal_upper  80
    z[5]      mccormick1[5]  1
    z[5]      mccormick2[5]  1
    z[5]      mccormick3[5]  -1
    z[6]      primal_upper  68
    z[6]      mccormick1[6]  1
    z[6]      mccormick2[6]  1
    z[6]      mccormick3[6]  -1
    z[7]      primal_upper  52
    z[7]      mccormick1[7]  1
    z[7]      mccormick2[7]  1
    z[7]      mccormick3[7]  -1
    z[8]      primal_upper  82
    z[8]      mccormick1[8]  1
    z[8]      mccormick2[8]  1
    z[8]      mccormick3[8]  -1
    z[9]      primal_upper  94
    z[9]      mccormick1[9]  1
    z[9]      mccormick2[9]  1
    z[9]      mccormick3[9]  -1
    z[10]     primal_upper  41
    z[10]     mccormick1[10]  1
    z[10]     mccormick2[10]  1
    z[10]     mccormick3[10]  -1
    z[11]     primal_upper  37
    z[11]     mccormick1[11]  1
    z[11]     mccormick2[11]  1
    z[11]     mccormick3[11]  -1
    z[12]     primal_upper  46
    z[12]     mccormick1[12]  1
    z[12]     mccormick2[12]  1
    z[12]     mccormick3[12]  -1
    z[13]     primal_upper  74
    z[13]     mccormick1[13]  1
    z[13]     mccormick2[13]  1
    z[13]     mccormick3[13]  -1
    z[14]     primal_upper  93
    z[14]     mccormick1[14]  1
    z[14]     mccormick2[14]  1
    z[14]     mccormick3[14]  -1
    z[15]     primal_upper  38
    z[15]     mccormick1[15]  1
    z[15]     mccormick2[15]  1
    z[15]     mccormick3[15]  -1
    z[16]     primal_upper  43
    z[16]     mccormick1[16]  1
    z[16]     mccormick2[16]  1
    z[16]     mccormick3[16]  -1
    z[17]     primal_upper  73
    z[17]     mccormick1[17]  1
    z[17]     mccormick2[17]  1
    z[17]     mccormick3[17]  -1
    z[18]     primal_upper  76
    z[18]     mccormick1[18]  1
    z[18]     mccormick2[18]  1
    z[18]     mccormick3[18]  -1
    z[19]     primal_upper  83
    z[19]     mccormick1[19]  1
    z[19]     mccormick2[19]  1
    z[19]     mccormick3[19]  -1
    MARKER    'MARKER'                 'INTEND'
RHS
    RHS1      primal_upper  2162
    RHS1      primal_lower0  950
    RHS1      primal_lower1  1592
    RHS1      primal_lower2  5757
    RHS1      primal_lower3  3188
    RHS1      primal_lower4  2723
    RHS1      primal_lower5  3132
    RHS1      primal_lower6  3403
    RHS1      primal_lower7  3272
    RHS1      primal_lower8  1645
    RHS1      primal_lower9  5395
    RHS1      mccormick3[0]  1
    RHS1      mccormick3[1]  1
    RHS1      mccormick3[2]  1
    RHS1      mccormick3[3]  1
    RHS1      mccormick3[4]  1
    RHS1      mccormick3[5]  1
    RHS1      mccormick3[6]  1
    RHS1      mccormick3[7]  1
    RHS1      mccormick3[8]  1
    RHS1      mccormick3[9]  1
    RHS1      mccormick3[10]  1
    RHS1      mccormick3[11]  1
    RHS1      mccormick3[12]  1
    RHS1      mccormick3[13]  1
    RHS1      mccormick3[14]  1
    RHS1      mccormick3[15]  1
    RHS1      mccormick3[16]  1
    RHS1      mccormick3[17]  1
    RHS1      mccormick3[18]  1
    RHS1      mccormick3[19]  1
BOUNDS
 BV BND1      y[0]    
 BV BND1      y[1]    
 BV BND1      y[2]    
 BV BND1      y[3]    
 BV BND1      y[4]    
 BV BND1      y[5]    
 BV BND1      y[6]    
 BV BND1      y[7]    
 BV BND1      y[8]    
 BV BND1      y[9]    
 BV BND1      y[10]   
 BV BND1      y[11]   
 BV BND1      y[12]   
 BV BND1      y[13]   
 BV BND1      y[14]   
 BV BND1      y[15]   
 BV BND1      y[16]   
 BV BND1      y[17]   
 BV BND1      y[18]   
 BV BND1      y[19]   
 BV BND1      u[0]    
 BV BND1      u[1]    
 BV BND1      u[2]    
 BV BND1      u[3]    
 BV BND1      u[4]    
 BV BND1      u[5]    
 BV BND1      u[6]    
 BV BND1      u[7]    
 BV BND1      u[8]    
 BV BND1      u[9]    
 BV BND1      u[10]   
 BV BND1      u[11]   
 BV BND1      u[12]   
 BV BND1      u[13]   
 BV BND1      u[14]   
 BV BND1      u[15]   
 BV BND1      u[16]   
 BV BND1      u[17]   
 BV BND1      u[18]   
 BV BND1      u[19]   
 BV BND1      z[0]    
 BV BND1      z[1]    
 BV BND1      z[2]    
 BV BND1      z[3]    
 BV BND1      z[4]    
 BV BND1      z[5]    
 BV BND1      z[6]    
 BV BND1      z[7]    
 BV BND1      z[8]    
 BV BND1      z[9]    
 BV BND1      z[10]   
 BV BND1      z[11]   
 BV BND1      z[12]   
 BV BND1      z[13]   
 BV BND1      z[14]   
 BV BND1      z[15]   
 BV BND1      z[16]   
 BV BND1      z[17]   
 BV BND1      z[18]   
 BV BND1      z[19]   
ENDATA
